Gurobi Optimizer version 9.1.2 build v9.1.2rc0 (linux64)
Thread count: 36 physical cores, 72 logical processors, using up to 32 threads
Optimize a model with 12 rows, 57 columns and 590 nonzeros
Model fingerprint: 0xf32eec78
Model has 47 quadratic constraints
Coefficient statistics:
  Matrix range     [2e-05, 3e+00]
  QMatrix range    [1e+00, 1e+00]
  QLMatrix range   [1e+00, 1e+00]
  Objective range  [8e-03, 7e-01]
  Bounds range     [1e+00, 1e+00]
  RHS range        [1e+00, 1e+00]
Presolve removed 9 rows and 0 columns

Continuous model is non-convex -- solving as a MIP.

Presolve removed 9 rows and 0 columns
Presolve time: 0.00s
Presolved: 189 rows, 57 columns, 443 nonzeros
Presolved model has 47 bilinear constraint(s)
Variable types: 57 continuous, 0 integer (0 binary)

Root relaxation: objective -1.743721e+00, 44 iterations, 0.00 seconds

    Nodes    |    Current Node    |     Objective Bounds      |     Work
 Expl Unexpl |  Obj  Depth IntInf | Incumbent    BestBd   Gap | It/Node Time

     0     0   -1.74372    0   38          -   -1.74372      -     -    0s
H    0     0                       0.6147548   -1.74372   384%     -    0s
     0     0   -1.64739    0    1    0.61475   -1.64739   368%     -    0s
H    0     0                      -1.6450460   -1.64739  0.14%     -    0s
     0     0     cutoff    0        -1.64505   -1.64505  0.00%     -    0s

Cutting planes:
  RLT: 25
  BQP: 3

Explored 1 nodes (76 simplex iterations) in 0.01 seconds
Thread count was 32 (of 72 available processors)

Solution count 2: -1.64505 0.614755 
No other solutions better than -1.64505

Optimal solution found (tolerance 1.00e-04)
Best objective -1.645045978473e+00, best bound -1.645045978473e+00, gap 0.0000%

User-callback calls 78, time in user-callback 0.00 sec
Gurobi Optimizer version 9.1.2 build v9.1.2rc0 (linux64)
Thread count: 36 physical cores, 72 logical processors, using up to 32 threads
Optimize a model with 24 rows, 125 columns and 2580 nonzeros
Model fingerprint: 0xfd623ce3
Model has 105 quadratic constraints
Coefficient statistics:
  Matrix range     [7e-06, 5e+01]
  QMatrix range    [1e+00, 1e+00]
  QLMatrix range   [1e+00, 1e+00]
  Objective range  [1e-02, 1e+00]
  Bounds range     [1e+00, 1e+00]
  RHS range        [1e+00, 1e+00]
Presolve removed 10 rows and 0 columns

Continuous model is non-convex -- solving as a MIP.

Presolve removed 10 rows and 0 columns
Presolve time: 0.00s
Presolved: 429 rows, 125 columns, 2142 nonzeros
Presolved model has 105 bilinear constraint(s)
Variable types: 125 continuous, 0 integer (0 binary)

Root relaxation: objective -4.361590e+00, 137 iterations, 0.00 seconds

    Nodes    |    Current Node    |     Objective Bounds      |     Work
 Expl Unexpl |  Obj  Depth IntInf | Incumbent    BestBd   Gap | It/Node Time

     0     0   -4.36159    0   95          -   -4.36159      -     -    0s
H    0     0                       0.0056523   -4.36159      -     -    0s
     0     0   -3.70529    0   51    0.00565   -3.70529      -     -    0s
H    0     0                      -2.4084750   -3.70529  53.8%     -    0s
     0     0   -3.69928    0   72   -2.40847   -3.69928  53.6%     -    0s
     0     0   -3.62484    0   66   -2.40847   -3.62484  50.5%     -    0s
     0     0   -3.61874    0   66   -2.40847   -3.61874  50.3%     -    0s
     0     0   -3.57661    0   59   -2.40847   -3.57661  48.5%     -    0s
     0     0   -3.57649    0   50   -2.40847   -3.57649  48.5%     -    0s
     0     0   -3.56950    0   72   -2.40847   -3.56950  48.2%     -    0s
     0     0   -3.56724    0   72   -2.40847   -3.56724  48.1%     -    0s
     0     0   -3.56631    0   83   -2.40847   -3.56631  48.1%     -    0s
     0     0   -3.56252    0   59   -2.40847   -3.56252  47.9%     -    0s
     0     0   -3.56151    0   83   -2.40847   -3.56151  47.9%     -    0s
     0     0   -3.56111    0   84   -2.40847   -3.56111  47.9%     -    0s
     0     0   -3.56067    0   59   -2.40847   -3.56067  47.8%     -    0s
     0     0   -3.56057    0   59   -2.40847   -3.56057  47.8%     -    0s
     0     0   -3.56014    0   72   -2.40847   -3.56014  47.8%     -    0s
H    0     0                      -2.5243648   -3.56014  41.0%     -    0s
H    0     0                      -2.7560570   -3.56014  29.2%     -    0s
H    0     0                      -2.8499371   -3.56014  24.9%     -    0s
H    0     0                      -2.9059252   -3.56014  22.5%     -    0s
H    0     0                      -2.9495795   -3.56014  20.7%     -    0s
     0     2   -3.56014    0   72   -2.94958   -3.56014  20.7%     -    0s
*  565   261              17      -2.9496372   -3.29409  11.7%  27.6    0s
*  689   347              15      -2.9677747   -3.21602  8.36%  25.0    0s
*  753   373              18      -2.9701883   -3.18781  7.33%  23.9    0s
*  788   373              20      -2.9774143   -3.18781  7.07%  23.0    0s
*  962   477              20      -2.9774146   -3.18781  7.07%  21.3    0s
* 1072   620              20      -3.0071534   -3.18781  6.01%  20.4    0s
* 1129   620              32      -3.0281641   -3.18781  5.27%  20.0    0s
* 1217   620              21      -3.0508678   -3.18781  4.49%  19.1    0s
* 1575    92              19      -3.0509153   -3.06522  0.47%  15.9    0s
* 1857    18              18      -3.0509595   -3.05202  0.03%  13.6    0s
* 1862    18              20      -3.0510014   -3.05202  0.03%  13.5    0s
* 1864    18              21      -3.0510037   -3.05202  0.03%  13.5    0s
* 1869    18              18      -3.0511458   -3.05202  0.03%  13.5    0s
* 1874    18              22      -3.0511501   -3.05202  0.03%  13.5    0s
* 1875    18              22      -3.0511509   -3.05202  0.03%  13.4    0s
* 1953    12              22      -3.0511517   -3.05139  0.01%  12.9    0s
* 1963    12              18      -3.0512274   -3.05137  0.00%  12.9    0s

Cutting planes:
  RLT: 61
  BQP: 7
  PSD: 24

Explored 2010 nodes (25700 simplex iterations) in 0.62 seconds
Thread count was 32 (of 72 available processors)

Solution count 10: -3.05123 -3.05115 -3.05115 ... -3.05087

Optimal solution found (tolerance 1.00e-04)
Best objective -3.051227446581e+00, best bound -3.051234614438e+00, gap 0.0002%

User-callback calls 4318, time in user-callback 0.00 sec



objective value: -3.0512274465810263
objective bound: -3.051234614437898
x_opt: [0.0, 0.0, 1.0, 0.0, 1.0, 0.6713138529461959, 1.0, 1.0, 1.0, 0.0, 0.0, 0.1979974391402129, 0.00017079952245431648, 0.0, 0.0, 0.4940290560315934, 0.0, 0.0, 0.005600758057563041, 0.0]
GUROBI solution time: 0.6201472282409668




